200 55
1 47
2 64
2 162
2 199
5 132
6 67
7 143
8 100
10 99
12 51
12 110
21 26
25 177
28 86
29 47
29 63
32 35
33 103
35 164
37 80
39 106
44 175
45 195
47 167
48 89
49 182
50 120
54 118
62 82
63 200
64 116
67 97
67 116
70 138
70 178
72 174
73 155
76 151
82 124
90 133
91 98
93 134
101 138
104 199
105 191
107 142
111 126
133 195
134 160
135 140
148 166
155 194
163 192
175 200
181 182
